c not original file ! May have been modified for weighted vertex coloring problem (edges and vertices stay the same only weights may have been moved to an other file)
p edge 86 497
e 1 2
e 1 3
e 1 4
e 1 5
e 1 6
e 1 21
e 1 28
e 1 48
e 1 56
e 1 68
e 1 79
e 1 84
e 2 3
e 2 4
e 2 5
e 2 6
e 2 8
e 2 22
e 2 29
e 2 38
e 2 49
e 2 61
e 2 73
e 2 85
e 3 4
e 3 5
e 3 6
e 3 10
e 3 25
e 3 53
e 3 57
e 3 63
e 4 5
e 4 6
e 4 12
e 4 26
e 4 65
e 4 69
e 4 75
e 5 6
e 5 13
e 5 33
e 5 40
e 5 44
e 5 54
e 5 70
e 5 76
e 6 14
e 6 18
e 6 45
e 6 55
e 6 66
e 6 77
e 6 81
e 6 86
e 7 8
e 7 9
e 7 10
e 7 11
e 7 12
e 7 13
e 7 14
e 7 15
e 7 19
e 7 35
e 7 46
e 7 60
e 7 72
e 7 82
e 8 9
e 8 10
e 8 11
e 8 12
e 8 13
e 8 14
e 8 22
e 8 29
e 8 38
e 8 49
e 8 61
e 8 73
e 8 85
e 9 10
e 9 11
e 9 12
e 9 13
e 9 14
e 9 23
e 9 30
e 9 43
e 9 50
e 9 62
e 10 11
e 10 12
e 10 13
e 10 14
e 10 25
e 10 53
e 10 57
e 10 63
e 11 12
e 11 13
e 11 14
e 11 32
e 11 39
e 11 58
e 11 64
e 11 74
e 12 13
e 12 14
e 12 26
e 12 65
e 12 69
e 12 75
e 13 14
e 13 33
e 13 40
e 13 44
e 13 54
e 13 70
e 13 76
e 14 18
e 14 45
e 14 55
e 14 66
e 14 77
e 14 81
e 14 86
e 15 16
e 15 17
e 15 18
e 15 19
e 15 35
e 15 46
e 15 60
e 15 72
e 15 82
e 16 17
e 16 18
e 16 31
e 16 51
e 17 18
e 17 34
e 17 59
e 17 71
e 17 80
e 18 45
e 18 55
e 18 66
e 18 77
e 18 81
e 18 86
e 19 20
e 19 21
e 19 22
e 19 23
e 19 24
e 19 25
e 19 26
e 19 35
e 19 46
e 19 60
e 19 72
e 19 82
e 20 21
e 20 22
e 20 23
e 20 24
e 20 25
e 20 26
e 20 27
e 20 37
e 20 42
e 20 47
e 20 78
e 20 83
e 21 22
e 21 23
e 21 24
e 21 25
e 21 26
e 21 28
e 21 48
e 21 56
e 21 68
e 21 79
e 21 84
e 22 23
e 22 24
e 22 25
e 22 26
e 22 29
e 22 38
e 22 49
e 22 61
e 22 73
e 22 85
e 23 24
e 23 25
e 23 26
e 23 30
e 23 43
e 23 50
e 23 62
e 24 25
e 24 26
e 24 52
e 25 26
e 25 53
e 25 57
e 25 63
e 26 65
e 26 69
e 26 75
e 27 28
e 27 29
e 27 30
e 27 31
e 27 32
e 27 33
e 27 34
e 27 37
e 27 42
e 27 47
e 27 78
e 27 83
e 28 29
e 28 30
e 28 31
e 28 32
e 28 33
e 28 34
e 28 48
e 28 56
e 28 68
e 28 79
e 28 84
e 29 30
e 29 31
e 29 32
e 29 33
e 29 34
e 29 38
e 29 49
e 29 61
e 29 73
e 29 85
e 30 31
e 30 32
e 30 33
e 30 34
e 30 43
e 30 50
e 30 62
e 31 32
e 31 33
e 31 34
e 31 51
e 32 33
e 32 34
e 32 39
e 32 58
e 32 64
e 32 74
e 33 34
e 33 40
e 33 44
e 33 54
e 33 70
e 33 76
e 34 59
e 34 71
e 34 80
e 35 36
e 35 37
e 35 38
e 35 39
e 35 40
e 35 46
e 35 60
e 35 72
e 35 82
e 36 37
e 36 38
e 36 39
e 36 40
e 36 41
e 36 67
e 37 38
e 37 39
e 37 40
e 37 42
e 37 47
e 37 78
e 37 83
e 38 39
e 38 40
e 38 49
e 38 61
e 38 73
e 38 85
e 39 40
e 39 58
e 39 64
e 39 74
e 40 44
e 40 54
e 40 70
e 40 76
e 41 42
e 41 43
e 41 44
e 41 45
e 41 67
e 42 43
e 42 44
e 42 45
e 42 47
e 42 78
e 42 83
e 43 44
e 43 45
e 43 50
e 43 62
e 44 45
e 44 54
e 44 70
e 44 76
e 45 55
e 45 66
e 45 77
e 45 81
e 45 86
e 46 47
e 46 48
e 46 49
e 46 50
e 46 51
e 46 52
e 46 53
e 46 54
e 46 55
e 46 60
e 46 72
e 46 82
e 47 48
e 47 49
e 47 50
e 47 51
e 47 52
e 47 53
e 47 54
e 47 55
e 47 78
e 47 83
e 48 49
e 48 50
e 48 51
e 48 52
e 48 53
e 48 54
e 48 55
e 48 56
e 48 68
e 48 79
e 48 84
e 49 50
e 49 51
e 49 52
e 49 53
e 49 54
e 49 55
e 49 61
e 49 73
e 49 85
e 50 51
e 50 52
e 50 53
e 50 54
e 50 55
e 50 62
e 51 52
e 51 53
e 51 54
e 51 55
e 52 53
e 52 54
e 52 55
e 53 54
e 53 55
e 53 57
e 53 63
e 54 55
e 54 70
e 54 76
e 55 66
e 55 77
e 55 81
e 55 86
e 56 57
e 56 58
e 56 59
e 56 68
e 56 79
e 56 84
e 57 58
e 57 59
e 57 63
e 58 59
e 58 64
e 58 74
e 59 71
e 59 80
e 60 61
e 60 62
e 60 63
e 60 64
e 60 65
e 60 66
e 60 72
e 60 82
e 61 62
e 61 63
e 61 64
e 61 65
e 61 66
e 61 73
e 61 85
e 62 63
e 62 64
e 62 65
e 62 66
e 63 64
e 63 65
e 63 66
e 64 65
e 64 66
e 64 74
e 65 66
e 65 69
e 65 75
e 66 77
e 66 81
e 66 86
e 67 68
e 67 69
e 67 70
e 67 71
e 68 69
e 68 70
e 68 71
e 68 79
e 68 84
e 69 70
e 69 71
e 69 75
e 70 71
e 70 76
e 71 80
e 72 73
e 72 74
e 72 75
e 72 76
e 72 77
e 72 82
e 73 74
e 73 75
e 73 76
e 73 77
e 73 85
e 74 75
e 74 76
e 74 77
e 75 76
e 75 77
e 76 77
e 77 81
e 77 86
e 78 79
e 78 80
e 78 81
e 78 83
e 79 80
e 79 81
e 79 84
e 80 81
e 81 86
e 82 83
e 82 84
e 82 85
e 82 86
e 83 84
e 83 85
e 83 86
e 84 85
e 84 86
e 85 86
